COLUMNS

passenger_count
pickup_ID
dropoff_ID
request_time_sec
pickup_district
dropoff_district
LDuals
IDuals
vehicle_ID
pick_position
drop_position

REQUESTS_INFO
1      887       772       31996     290       290       213       213       12        1         2         
1      925       651       32007     290       189       181       181       63        1         3         
2      747       36        31961     290       98        231       231       88        1         2         
1      889       416       31925     290       100       270       270       132       1         2         
1      957       649       31947     291       189       230       230       139       1         2         
2      886       983       32005     290       291       206       206       163       1         4         
1      886       973       31802     290       84        409       409       163       2         3         
2      257       627       31933     87        189       189       189       217       1         4         
2      460       372       31956     189       119       181       181       220       1         2         
1      927       698       31839     290       189       353       353       255       1         3         
1      481       736       31965     189       131       166       166       284       1         3         
1      476       505       31983     52        52        185       185       286       1         2         
1      914       720       31978     291       290       194       194       310       1         3         
2      946       720       31991     290       290       198       198       317       1         3         
2      746       578       31892     290       189       307       307       320       1         2         
3      1168      594       31971     291       131       177       177       347       1         2         
2      333       377       32007     119       168       102       102       402       1         2         
1      376       505       31956     168       52        189       189       406       1         2         
1      896       836       32009     291       290       172       172       429       1         3         
1      880       671       31952     50        280       257       257       431       1         3         
1      971       605       31928     290       189       243       243       486       1         2         
1      1025      947       31890     291       290       295       295       519       1         2         
4      924       733       31775     290       131       413       413       544       1         2         
1      824       939       31934     291       291       250       250       585       1         2         
1      642       454       31980     131       52        127       127       618       1         3         
2      688       670       32006     131       280       143       143       640       1         2         
1      766       531       32004     290       189       121       121       654       1         3         
1      527       716       31990     52        189       153       153       661       1         3         
3      946       720       31991     290       290       198       198       726       1         3         
3      749       253       31992     290       206       176       176       728       1         2         
1      948       1147      31962     290       291       216       216       754       1         2         
1      813       699       31983     290       290       192.5     192.5     763       1         2         
3      849       581       31981     291       189       283       283       767       1         2         
2      811       746       31972     290       290       200.5     200.5     772       1         2         
1      377       624       31982     168       189       172       172       794       1         3         
1      939       118       31999     291       286       207       207       809       1         3         
1      842       355       31927     290       119       297       297       815       1         3         
3      336       508       31963     277       199       200       200       849       1         2         
1      979       650       31940     291       189       246       246       869       1         3         
1      773       669       32004     290       280       123.5     123.5     874       1         3         
1      904       760       32003     290       291       174       174       883       1         3         
1      980       720       31977     291       290       204       204       963       1         4         
2      350       652       31997     127       189       167       167       970       1         4         
4      1064      968       31945     291       290       276       276       987       1         2         
1      757       981       31965     131       291       135       135       997       1         3         
1      889       675       31935     290       189       260       260       998       1         2         
2      893       554       31958     291       189       172       172       1034      1         3         
1      532       714       31993     199       131       111       111       1056      1         3         
1      906       815       32004     290       290       174       174       1058      1         4         
1      961       696       31939     291       189       265       265       1077      1         3         
2      679       626       31968     290       189       189       189       1097      1         2         
1      837       948       31951     290       290       238       238       1124      1         2         
1      1151      1047      31998     291       291       145       145       1171      1         2         
1      393       444       31982     52        168       129       129       1180      1         2         
1      841       904       31951     290       290       263       263       1229      1         2         
1      791       926       31918     290       290       225.5     225.5     1263      1         2         
1      374       289       31991     119       127       151       151       1273      1         2         
3      963       727       32005     50        290       168       168       1280      1         2         
2      1000      1087      31952     291       291       253       253       1309      1         3         
4      838       720       31908     290       290       305       305       1322      1         2         
1      1130      1004      31980     291       291       167       167       1327      1         3         
1      961       958       32000     291       291       189       189       1340      1         2         
3      937       116       31994     291       9         189       189       1603      1         3         
1      772       946       31982     290       290       154.5     154.5     1738      1         4         
1      837       946       31990     290       290       175.5     175.5     1738      2         3         
3      723       461       31995     290       189       152.5     152.5     1746      1         2         
1      679       48        31970     290       98        187       187       1806      1         2         
1      864       772       31976     290       290       125.5     125.5     1836      1         2         
3      810       697       31922     290       189       266.5     266.5     1876      1         2         
1      313       602       31984     87        189       174       174       1896      1         2         
1      904       552       32009     290       189       168       168       1903      1         5         
2      795       852       31638     290       291       559       559       1917      1         2         
1      837       721       31996     290       290       172.5     172.5     1933      1         4         
2      838       629       31996     290       189       186.5     186.5     1933      2         5         
1      583       535       31994     189       189       138       138       1945      1         3         
4      839       289       31974     290       127       225       225       1965      1         2         
1      313       969       32009     87        290       149       149       1979      1         3         
2      782       371       31962     291       52        178       178       1988      1         3         
3      479       606       31983     52        189       186       186       1998      1         2         
2      507       693       32010     189       280       0         0         0         0         0         
1      837       907       32010     290       290       0         0         0         0         0         
2      171       526       32010     286       52        0         0         0         0         0         
3      896       716       32010     291       189       0         0         0         0         0         
3      896       716       32010     291       189       0         0         0         0         0         
2      292       369       32010     87        52        0         0         0         0         0         
1      373       309       32010     119       127       0         0         0         0         0         
1      656       887       32011     290       290       0         0         0         0         0         
1      847       599       32011     291       280       0         0         0         0         0         
1      397       627       32012     168       189       0         0         0         0         0         
1      936       439       32012     291       189       0         0         0         0         0         
1      326       174       32012     299       266       0         0         0         0         0         
1      575       555       32012     189       199       0         0         0         0         0         
1      574       484       32012     189       189       0         0         0         0         0         
2      699       510       32013     290       199       0         0         0         0         0         
3      699       510       32013     290       199       0         0         0         0         0         
1      415       338       32013     100       277       0         0         0         0         0         
1      603       720       32013     189       290       0         0         0         0         0         
1      253       275       32013     206       87        0         0         0         0         0         
1      914       372       32014     291       119       0         0         0         0         0         
1      581       722       32014     189       290       0         0         0         0         0         
1      134       389       32014     9         299       0         0         0         0         0         
1      484       721       32014     189       290       0         0         0         0         0         
2      335       269       32014     119       127       0         0         0         0         0         
2      662       918       32014     131       50        0         0         0         0         0         
3      396       884       32014     119       290       0         0         0         0         0         
2      396       884       32014     119       290       0         0         0         0         0         
1      633       760       32014     189       291       0         0         0         0         0         
3      330       421       32015     127       168       0         0         0         0         0         
3      330       421       32015     127       168       0         0         0         0         0         
1      287       544       32015     299       52        0         0         0         0         0         
1      695       903       32015     189       290       0         0         0         0         0         
1      375       671       32015     119       280       0         0         0         0         0         
1      514       697       32016     999       189       0         0         0         0         0         
1      152       273       32016     9         206       0         0         0         0         0         
3      772       669       32016     290       280       0         0         0         0         0         
1      669       669       32016     280       280       0         0         0         0         0         
2      267       356       32016     266       119       0         0         0         0         0         
1      534       627       32017     199       189       0         0         0         0         0         
1      549       719       32017     52        189       0         0         0         0         0         
1      78        19        32018     9         98        0         0         0         0         0         
1      757       388       32019     131       299       0         0         0         0         0         
1      534       487       32019     199       199       0         0         0         0         0         
1      780       873       32019     291       291       0         0         0         0         0         
3      275       306       32019     87        299       0         0         0         0         0         
3      60        858       32019     9         290       0         0         0         0         0         
1      963       760       32019     50        291       0         0         0         0         0         
3      695       575       32019     189       189       0         0         0         0         0         
1      208       710       32019     286       131       0         0         0         0         0         
2      695       575       32019     189       189       0         0         0         0         0         
1      527       439       32019     52        189       0         0         0         0         0         
3      411       788       32020     52        290       0         0         0         0         0         
1      1128      1245      32020     291       192       0         0         0         0         0         
1      654       629       32020     189       189       0         0         0         0         0         
3      411       788       32020     52        290       0         0         0         0         0         
1      860       946       32021     290       290       0         0         0         0         0         
2      553       694       32021     189       189       0         0         0         0         0         
1      827       1706      32021     291       142       0         0         0         0         0         
1      78        723       32021     9         290       0         0         0         0         0         
1      1048      963       32021     291       50        0         0         0         0         0         
1      893       527       32021     291       52        0         0         0         0         0         
1      626       737       32022     189       189       0         0         0         0         0         
1      816       513       32022     290       199       0         0         0         0         0         
1      439       766       32022     189       290       0         0         0         0         0         
3      829       521       32023     50        52        0         0         0         0         0         
1      702       905       32023     290       290       0         0         0         0         0         
1      700       461       32023     290       189       0         0         0         0         0         
2      829       521       32023     50        52        0         0         0         0         0         
1      504       577       32024     52        189       0         0         0         0         0         
1      481       698       32024     189       189       0         0         0         0         0         
1      549       462       32024     52        189       0         0         0         0         0         
1      545       688       32024     52        131       0         0         0         0         0         
1      43        556       32024     9         199       0         0         0         0         0         
1      1045      100       32024     291       57        0         0         0         0         0         
1      32        116       32024     98        9         0         0         0         0         0         
3      717       556       32025     189       199       0         0         0         0         0         
2      717       556       32025     189       199       0         0         0         0         0         
1      693       629       32025     280       189       0         0         0         0         0         
1      741       673       32025     50        189       0         0         0         0         0         
1      672       945       32026     189       50        0         0         0         0         0         
1      604       721       32026     189       290       0         0         0         0         0         
4      559       308       32026     189       127       0         0         0         0         0         
1      163       259       32026     178       87        0         0         0         0         0         
1      421       485       32026     168       189       0         0         0         0         0         
2      452       438       32026     52        100       0         0         0         0         0         
1      576       580       32026     189       189       0         0         0         0         0         
1      646       9         32026     280       98        0         0         0         0         0         
3      762       918       32026     50        50        0         0         0         0         0         
3      762       918       32026     50        50        0         0         0         0         0         
1      847       604       32026     291       189       0         0         0         0         0         
1      608       652       32027     189       189       0         0         0         0         0         
2      927       674       32027     290       189       0         0         0         0         0         
3      304       418       32027     299       168       0         0         0         0         0         
2      304       418       32027     299       168       0         0         0         0         0         
3      506       578       32027     189       189       0         0         0         0         0         
2      506       578       32027     189       189       0         0         0         0         0         
1      712       647       32027     131       280       0         0         0         0         0         
1      782       968       32028     291       290       0         0         0         0         0         
3      560       928       32029     189       290       0         0         0         0         0         
1      794       811       32029     290       290       0         0         0         0         0         
1      717       628       32030     189       189       0         0         0         0         0         
1      229       387       32031     266       299       0         0         0         0         0         
1      581       779       32031     189       131       0         0         0         0         0         
3      713       604       32032     131       189       0         0         0         0         0         
2      713       604       32032     131       189       0         0         0         0         0         
1      598       803       32032     189       291       0         0         0         0         0         
1      78        189       32032     9         286       0         0         0         0         0         
1      584       550       32032     189       189       0         0         0         0         0         
1      905       717       32032     290       189       0         0         0         0         0         
1      549       171       32032     52        286       0         0         0         0         0         
3      484       116       32033     189       9         0         0         0         0         0         
2      748       377       32033     290       168       0         0         0         0         0         
1      559       10        32033     189       98        0         0         0         0         0         
1      745       652       32033     290       189       0         0         0         0         0         
1      307       349       32033     127       127       0         0         0         0         0         
3      748       377       32033     290       168       0         0         0         0         0         
2      484       116       32033     189       9         0         0         0         0         0         
2      246       412       32033     266       52        0         0         0         0         0         
1      645       31        32034     280       9         0         0         0         0         0         
1      287       209       32034     299       266       0         0         0         0         0         
1      413       544       32034     52        52        0         0         0         0         0         
1      556       698       32034     199       189       0         0         0         0         0         
1      444       578       32034     168       189       0         0         0         0         0         
2      415       545       32035     100       52        0         0         0         0         0         
1      348       285       32035     299       299       0         0         0         0         0         
1      679       674       32035     290       189       0         0         0         0         0         
1      512       630       32035     199       189       0         0         0         0         0         
1      526       737       32035     52        189       0         0         0         0         0         
1      433       395       32035     52        100       0         0         0         0         0         
1      851       806       32035     291       50        0         0         0         0         0         
1      781       430       32035     291       52        0         0         0         0         0         
1      504       459       32036     52        189       0         0         0         0         0         
2      1045      849       32036     291       291       0         0         0         0         0         
1      104       377       32036     287       168       0         0         0         0         0         
1      315       533       32037     277       199       0         0         0         0         0         
1      441       532       32037     168       199       0         0         0         0         0         
1      989       629       32037     50        189       0         0         0         0         0         
1      993       1088      32037     84        291       0         0         0         0         0         
1      210       624       32037     266       189       0         0         0         0         0         
1      437       371       32037     100       52        0         0         0         0         0         
1      556       81        32037     199       98        0         0         0         0         0         
1      349       48        32038     127       98        0         0         0         0         0         
2      825       719       32038     291       189       0         0         0         0         0         
1      336       116       32038     277       9         0         0         0         0         0         
3      819       721       32038     999       290       0         0         0         0         0         
1      946       583       32038     290       189       0         0         0         0         0         
1      668       720       32038     280       290       0         0         0         0         0         
1      940       570       32038     291       52        0         0         0         0         0         
1      251       240       32038     127       87        0         0         0         0         0         
1      765       675       32038     290       189       0         0         0         0         0         
1      155       116       32038     286       9         0         0         0         0         0         
1      576       615       32038     189       131       0         0         0         0         0         
2      642       525       32038     131       52        0         0         0         0         0         
3      642       525       32038     131       52        0         0         0         0         0         
1      531       419       32039     189       168       0         0         0         0         0         
1      505       812       32039     52        290       0         0         0         0         0         
3      310       421       32039     127       168       0         0         0         0         0         
4      1151      1065      32039     291       291       0         0         0         0         0         
